(set-logic ALL)
(declare-fun seed0_T_1 () Bool)
(declare-fun seed0_T_2 () Bool)
(declare-fun seed0_var_0xINPUT_86423 () String)
(assert (and (or (= seed0_T_1 (= seed0_var_0xINPUT_86423 "")) (xor (str.suffixof (str.++ seed0_var_0xINPUT_86423 "F47RsViHECO8ot") (str.++ seed0_var_0xINPUT_86423 "1RtdVX2nrDMJOze3ih")) (str.prefixof (str.++ seed0_var_0xINPUT_86423 "CvAU8Y3iKSaXIPB") (str.++ seed0_var_0xINPUT_86423 "7niagYODW")))) (or (= seed0_T_2 (not seed0_T_1)) (and (str.<= (str.++ seed0_var_0xINPUT_86423 "ucWT") (str.++ seed0_var_0xINPUT_86423 "qjVfKRshv")) (str.<= (str.++ seed0_var_0xINPUT_86423 "") (str.++ seed0_var_0xINPUT_86423 "UBH")))) (or seed0_T_2 (and (str.< (str.++ seed0_var_0xINPUT_86423 "aU1mYPlAbFX6IzCHgxK") (str.++ seed0_var_0xINPUT_86423 "B7yrWiJONvfTj")) (str.<= (str.++ seed0_var_0xINPUT_86423 "X") (str.++ seed0_var_0xINPUT_86423 "xJkq"))))))
(check-sat)
(exit)